0000000000000000
0000000000000000
0011100000000000
0000001111000000
0000000000110000
0000000000001000
0000000000000100
0000000000000100
0000000000000100
0000000000001000
0000000000001000
0000000000010000
0001111011100000
0000000000000000
0000000000000000
0000000000000000
